p cnf 88 294
2 -1 0
2 -1 0
1 -2 0
-4 2 0
-4 3 0
-2 -3 4 0
5 -6 -7 0
-5 6 -7 0
5 6 7 0
-5 -6 7 0
-4 7 -8 0
4 -7 -8 0
-4 -7 8 0
4 7 8 0
-9 -5 0
-9 3 0
5 -3 9 0
-10 -11 -12 0
10 11 -12 0
-10 11 12 0
10 -11 12 0
9 12 -13 0
-9 -12 -13 0
9 -12 13 0
-9 12 13 0
14 8 0
14 -13 0
-8 13 -14 0
17 15 0
17 16 0
-15 -16 -17 0
-18 -11 0
-18 17 0
11 -17 18 0
-19 -9 0
-19 18 0
9 -18 19 0
21 19 0
21 20 0
-19 -20 -21 0
-22 -14 0
-22 21 0
14 -21 22 0
23 5 0
23 -6 0
-5 6 -23 0
24 6 0
24 -23 0
-6 23 -24 0
-25 1 0
-25 24 0
-1 -24 25 0
22 25 -26 0
-22 -25 -26 0
22 -25 26 0
-22 25 26 0
-27 11 0
-27 18 0
-11 -18 27 0
28 -27 0
28 -23 0
27 23 -28 0
-29 -11 0
-29 11 0
-29 -23 -30 0
29 23 -30 0
-29 23 30 0
29 -23 30 0
-32 31 0
-32 -20 0
-31 20 32 0
-33 -23 0
-33 16 0
23 -16 33 0
35 33 0
35 -34 0
-33 34 -35 0
-36 35 0
-36 2 0
-35 -2 36 0
-37 32 0
-37 36 0
-32 -36 37 0
38 -30 0
38 37 0
30 -37 -38 0
-39 -7 0
-39 10 0
7 -10 39 0
40 38 0
40 39 0
-38 -39 -40 0
-41 28 0
-41 40 0
-28 -40 41 0
26 41 -42 0
-26 -41 -42 0
26 -41 42 0
-26 41 42 0
10 -16 -43 0
-10 16 -43 0
10 16 43 0
-10 -16 43 0
43 -10 -44 0
-43 10 -44 0
43 10 44 0
-43 -10 44 0
-46 -15 0
-46 45 0
15 -45 46 0
-46 23 -47 0
46 -23 -47 0
-46 -23 47 0
46 23 47 0
47 9 -48 0
-47 -9 -48 0
47 -9 48 0
-47 9 48 0
32 -20 -49 0
-32 20 -49 0
32 20 49 0
-32 -20 49 0
-51 1 0
-51 11 0
-1 -11 51 0
-50 51 -52 0
50 -51 -52 0
-50 -51 52 0
50 51 52 0
53 49 0
53 52 0
-49 -52 -53 0
48 -53 -54 0
-48 53 -54 0
48 53 54 0
-48 -53 54 0
55 -44 0
55 54 0
44 -54 -55 0
57 -56 0
57 -3 0
56 3 -57 0
58 57 0
58 -57 0
59 17 0
59 29 0
-17 -29 -59 0
60 59 0
60 -36 0
-59 36 -60 0
58 60 -61 0
-58 -60 -61 0
58 -60 61 0
-58 60 61 0
-62 55 0
-62 61 0
-55 -61 62 0
63 23 0
63 -2 0
-23 2 -63 0
64 31 0
64 -63 0
-31 63 -64 0
-65 64 0
-65 8 0
-64 -8 65 0
-66 -4 0
-66 65 0
4 -65 66 0
-19 18 -67 0
19 -18 -67 0
-19 -18 67 0
19 18 67 0
-33 -67 -68 0
33 67 -68 0
-33 67 68 0
33 -67 68 0
69 36 0
69 68 0
-36 -68 -69 0
70 -45 0
70 -16 0
45 16 -70 0
-69 70 -71 0
69 -70 -71 0
-69 -70 71 0
69 70 71 0
66 -71 -72 0
-66 71 -72 0
66 71 72 0
-66 -71 72 0
73 23 0
73 -34 0
-23 34 -73 0
-74 72 0
-74 -73 0
-72 73 74 0
-62 -74 -75 0
62 74 -75 0
-62 74 75 0
62 -74 75 0
-7 -29 -76 0
7 29 -76 0
-7 29 76 0
7 -29 76 0
77 -18 0
77 -20 0
18 20 -77 0
-78 20 0
-78 77 0
-20 -77 78 0
79 -78 0
79 64 0
78 -64 -79 0
76 79 -80 0
-76 -79 -80 0
76 -79 80 0
-76 79 80 0
81 27 0
81 -29 0
-27 29 -81 0
-82 -81 0
-82 -19 0
81 19 82 0
80 82 -83 0
-80 -82 -83 0
80 -82 83 0
-80 82 83 0
67 -43 -84 0
-67 43 -84 0
67 43 84 0
-67 -43 84 0
85 -43 0
85 84 0
43 -84 -85 0
86 -83 0
86 -85 0
83 85 -86 0
87 75 0
87 -86 0
-75 86 -87 0
88 -42 0
88 -87 0
42 87 -88 0
71 0
-9 68 -67 3 -77 -46 0
-62 37 27 -74 0
77 37 -41 58 -29 -4 0
-1 -83 0
-84 5 -16 -70 83 0
-64 28 0
-19 13 80 0
66 56 0
49 -28 0
-83 -50 42 -3 -73 0
-18 -83 71 -75 -50 0
-64 83 -68 14 0
-65 38 0
-70 68 -74 0
-54 27 0
-88 32 42 3 52 0
-56 47 -55 -30 -69 71 0
-35 -37 0
24 -60 18 33 0
64 -23 -19 12 0
24 61 0
44 19 78 0
-35 -4 0
70 69 -5 -14 0
30 63 -66 0
-23 28 -9 -53 1 0
-15 38 0
-25 -60 13 38 0
-35 -11 -45 57 0
-55 -15 0
-28 -55 18 88 -61 0
-61 -15 23 -30 0
-45 83 -40 -20 -87 0
-11 24 0
71 -79 44 -77 -34 0
-79 1 84 61 0
-17 -10 -57 0
26 -83 -6 46 0
-78 59 -31 29 0
39 60 -48 -88 7 64 0
28 39 -72 0
52 19 -88 6 0
-65 6 55 -24 84 51 0
30 67 5 -24 0
-58 25 -75 18 -55 -26 0
-58 -64 -67 0
-21 78 0
76 62 -71 -88 28 0
88 0
